nbV = 18;
nbE = 21;
map = [|false,false,false,false,false,false,false,false,false,false,false,false,false,false,false,false,true,false,false,false,false
|false,false,false,false,false,false,false,false,false,false,false,false,true,true,true,false,false,false,false,false,false
|false,false,false,false,false,false,false,false,false,false,false,false,false,false,false,true,false,false,false,false,false
|false,false,false,false,false,false,false,false,false,false,false,false,false,false,false,false,false,false,true,true,false
|false,false,true,false,false,false,false,false,false,false,false,false,false,false,false,false,false,false,false,false,false
|true,true,false,false,false,false,false,false,false,false,false,false,false,false,false,false,false,false,false,false,false
|false,false,false,false,false,false,false,false,false,false,false,false,false,false,false,false,false,false,false,false,true
|false,false,false,false,false,false,false,false,true,false,false,false,false,false,false,false,false,false,false,false,false
|false,false,false,false,false,false,false,false,false,false,false,false,false,false,false,false,false,true,false,true,false
|false,false,false,false,false,false,false,false,false,true,true,true,false,false,false,false,false,false,false,false,false
|false,true,true,true,true,false,false,false,false,false,false,false,false,false,false,false,false,false,false,false,false
|true,false,false,true,false,true,false,false,false,false,false,false,false,false,false,false,false,false,false,false,false
|false,false,false,false,false,true,true,true,false,false,false,false,false,false,false,false,false,false,false,false,false
|false,false,false,false,false,false,true,false,true,false,false,true,false,false,false,false,false,false,false,false,false
|false,false,false,false,false,false,false,true,false,false,true,false,false,false,true,false,false,false,false,false,false
|false,false,false,false,true,false,false,false,false,false,false,false,false,true,false,true,false,false,false,false,false
|false,false,false,false,false,false,false,false,false,true,false,false,true,false,false,false,false,true,false,false,false
|false,false,false,false,false,false,false,false,false,false,false,false,false,false,false,false,true,false,true,false,true
|];
endnodes = [|false,false,false,false,false,true,false,false,false,false,false,true,false,false,false,false,false,false
|false,false,false,false,false,true,false,false,false,false,true,false,false,false,false,false,false,false
|false,false,false,false,true,false,false,false,false,false,true,false,false,false,false,false,false,false
|false,false,false,false,false,false,false,false,false,false,true,true,false,false,false,false,false,false
|false,false,false,false,false,false,false,false,false,false,true,false,false,false,false,true,false,false
|false,false,false,false,false,false,false,false,false,false,false,true,true,false,false,false,false,false
|false,false,false,false,false,false,false,false,false,false,false,false,true,true,false,false,false,false
|false,false,false,false,false,false,false,false,false,false,false,false,true,false,true,false,false,false
|false,false,false,false,false,false,false,true,false,false,false,false,false,true,false,false,false,false
|false,false,false,false,false,false,false,false,false,true,false,false,false,false,false,false,true,false
|false,false,false,false,false,false,false,false,false,true,false,false,false,false,true,false,false,false
|false,false,false,false,false,false,false,false,false,true,false,false,false,true,false,false,false,false
|false,true,false,false,false,false,false,false,false,false,false,false,false,false,false,false,true,false
|false,true,false,false,false,false,false,false,false,false,false,false,false,false,false,true,false,false
|false,true,false,false,false,false,false,false,false,false,false,false,false,false,true,false,false,false
|false,false,true,false,false,false,false,false,false,false,false,false,false,false,false,true,false,false
|true,false,false,false,false,false,false,false,false,false,false,false,false,false,false,false,false,true
|false,false,false,false,false,false,false,false,true,false,false,false,false,false,false,false,true,false
|false,false,false,true,false,false,false,false,false,false,false,false,false,false,false,false,false,true
|false,false,false,true,false,false,false,false,true,false,false,false,false,false,false,false,false,false
|false,false,false,false,false,false,true,false,false,false,false,false,false,false,false,false,false,true
|];
terminals = {1,2,3,4,5,6,7,8,9,10};
link_cost = [355991,554454,1010250,198463,4291328,594543,2759521,2257657,1034246,1621365,2577284,2075420,2577284,380700,1621365,33235,2923036,1598557,1638544,575528,107231];
